%%% static parameters %%%
timespan = 1;
Fact = [2];
Distr1 = [5];
Distr2 = [10];
Clients_N = [120];
Demand_W = [15];
Lt0 = [4];
Lt1 = [4];
SS_ = [0.85];
DS_D = [5];
K = [200];
MA = [500];
%%% dynamic parameters %%%
lost_ratio_sales_ret_th = 0.3706769683559349;
lost_ratio_sales_ret_w = 19;
lost_ratio_sales_dis_th = 0.4870913177584898;
lost_ratio_sales_dis_w = 43;
lost_ratio_sales_fac_th = 0.9522444916601167;
lost_ratio_sales_fac_w = 46;
stock_customer_MA_mean_relative_th = 0.07227348493424357;
stock_customer_MA_mean_relative_w = 46;
stock_distributor_MA_mean_relative_th = 0.8232540876959866;
stock_distributor_MA_mean_relative_w = 33;
stock_retailer_MA_mean_relative_th = 0.7289204598357129;
stock_retailer_MA_mean_relative_w = 38;
stock_factory_MA_mean_relative_th = 0.9319243224561515;
stock_factory_MA_mean_relative_w = 28;
